c Reading file experiments/loan_acquisition/mmc_encoding/cegqs_0.dimacs
c Building 1-fold quantitative self-composition...
c ind 127  128  129  130  131  132  133  134  148  150  152  153 0
c previous ind: 298  299  300  303  304  305  306  309  310  311  312  315  316  317  320  321  322  323  326  327  328  329  332  333  334  337  338  339  342  343  344  345  347  348  349  350  351 0
c This is a CNF SAT formula in the DIMACS CNF format,
c produced with the bc2cnf translator by Tommi Junttila;
c see http://users.ics.aalto.fi/tjunttil/circuits/index.html
c phi_Gamma_det <-> 1
c phi_Gamma <-> 1
c phi_T_transitions <-> 1
c phi_T_transitions_consistency <-> 1
c phi_T <-> 1
c phi_sim_leaves <-> 1
c phi_sim_transition <-> 1
c phi_sim <-> 1
c FORMULA <-> 1
c pi_0 <-> 2
c tau_0_3_approved_1 <-> 127
c tau_0_3_approved_0 <-> 128
c tau_0_2_approved_1 <-> 129
c tau_0_2_approved_0 <-> 130
c tau_0_1_approved_1 <-> 131
c tau_0_1_approved_0 <-> 132
c tau_0_0_approved_1 <-> 133
c tau_0_0_approved_0 <-> 134
c phi_T_feature_det <-> 135
c lam_0_credit_score <-> 148
c lam_0_dependents <-> 150
c lam_0_monthly_income <-> 152
c lam_0_age <-> 153
c phi_Gamma_val <-> 296
c credit_score_P64800 <-> 298
c monthly_income_P714034 <-> 299
c age_P1800 <-> 300
c credit_score_P38500 <-> 303
c dependents_P300 <-> 304
c monthly_income_P466725 <-> 305
c age_P6900 <-> 306
c credit_score_P59900 <-> 309
c dependents_P500 <-> 310
c monthly_income_P428714 <-> 311
c age_P5800 <-> 312
c credit_score_P74500 <-> 315
c monthly_income_P810245 <-> 316
c age_P5700 <-> 317
c credit_score_P61700 <-> 320
c dependents_P0 <-> 321
c monthly_income_P786495 <-> 322
c age_P3800 <-> 323
c pi_approved_1 <-> 326
c approved_P100 <-> 326
c credit_score_P41800 <-> 327
c monthly_income_P894106 <-> 328
c age_P5000 <-> 329
c credit_score_P89100 <-> 332
c monthly_income_P560566 <-> 333
c age_P2000 <-> 334
c credit_score_P86700 <-> 337
c dependents_P600 <-> 338
c monthly_income_P394158 <-> 339
c credit_score_P79800 <-> 342
c dependents_P100 <-> 343
c monthly_income_P348828 <-> 344
c age_P5600 <-> 345
c pi_approved_0 <-> 347
c approved_P0 <-> 347
c credit_score_P81400 <-> 348
c dependents_P400 <-> 349
c monthly_income_P169231 <-> 350
c age_P6500 <-> 351
c ind 298 299 300 303 304 305 306 309 310 311 312 315 316 317 320 321 322 323 326 327 328 329 332 333 334 337 338 339 342 343 344 345 347 348 349 350 351 0
p cnf 353 946
1 0
2 -3 0
2 -6 0
-2 6 3 0
2 0
-3 4 0
-3 61 0
3 -61 -4 0
-4 5 0
-4 148 0
4 -148 -5 0
5 -39 0
5 -70 0
-5 70 39 0
6 -7 0
6 -11 0
-6 11 7 0
-7 8 0
-7 82 0
7 -82 -8 0
-8 9 0
-8 148 0
8 -148 -9 0
9 -10 0
9 -95 0
-9 95 10 0
10 -66 0
10 -86 0
-10 86 66 0
11 -12 0
11 -15 0
-11 15 12 0
-12 13 0
-12 90 0
12 -90 -13 0
-13 14 0
-13 148 0
13 -148 -14 0
14 -49 0
14 -74 0
-14 74 49 0
15 -16 0
15 -24 0
-15 24 16 0
-16 17 0
-16 82 0
16 -82 -17 0
-17 18 0
-17 150 0
17 -150 -18 0
18 -19 0
18 -95 0
-18 95 19 0
19 -20 0
19 -49 0
-19 49 20 0
20 -21 0
20 -66 0
-20 66 21 0
21 -22 0
21 -70 0
-21 70 22 0
22 -23 0
22 -74 0
-22 74 23 0
23 -52 0
23 -98 0
-23 98 52 0
24 -25 0
24 -28 0
-24 28 25 0
-25 26 0
-25 90 0
25 -90 -26 0
-26 27 0
-26 150 0
26 -150 -27 0
27 -77 0
27 -86 0
-27 86 77 0
28 -29 0
28 -34 0
-28 34 29 0
-29 30 0
-29 82 0
29 -82 -30 0
-30 31 0
-30 152 0
30 -152 -31 0
31 -32 0
31 -95 0
-31 95 32 0
32 -33 0
32 -70 0
-32 70 33 0
33 -74 0
33 -86 0
-33 86 74 0
34 -35 0
34 -42 0
-34 42 35 0
-35 36 0
-35 90 0
35 -90 -36 0
-36 37 0
-36 152 0
36 -152 -37 0
37 -38 0
37 -49 0
-37 49 38 0
38 -39 0
38 -66 0
-38 66 39 0
39 -40 0
39 -98 0
-39 98 40 0
40 -41 0
40 -53 0
-40 53 41 0
41 -56 0
41 -77 0
-41 77 56 0
42 -43 0
42 -59 0
-42 59 43 0
-43 44 0
-43 47 0
43 -47 -44 0
-44 45 0
-44 46 0
44 -46 -45 0
45 127 0
45 -326 0
-45 326 -127 0
46 128 0
46 -347 0
-46 347 -128 0
-47 48 0
-47 153 0
47 -153 -48 0
48 -49 0
48 -52 0
-48 52 49 0
-49 50 0
-49 303 0
49 -303 -50 0
-50 51 0
-50 304 0
50 -304 -51 0
-51 305 0
-51 306 0
51 -306 -305 0
52 -53 0
52 -56 0
-52 56 53 0
-53 54 0
-53 337 0
53 -337 -54 0
-54 55 0
-54 338 0
54 -338 -55 0
-55 339 0
-55 351 0
55 -351 -339 0
-56 57 0
-56 348 0
56 -348 -57 0
-57 58 0
-57 349 0
57 -349 -58 0
-58 350 0
-58 351 0
58 -351 -350 0
59 -60 0
59 -80 0
-59 80 60 0
-60 61 0
-60 64 0
60 -64 -61 0
-61 62 0
-61 63 0
61 -63 -62 0
62 129 0
62 -326 0
-62 326 -129 0
63 130 0
63 -347 0
-63 347 -130 0
-64 65 0
-64 153 0
64 -153 -65 0
65 -66 0
65 -69 0
-65 69 66 0
-66 67 0
-66 309 0
66 -309 -67 0
-67 68 0
-67 310 0
67 -310 -68 0
-68 311 0
-68 312 0
68 -312 -311 0
69 -70 0
69 -73 0
-69 73 70 0
-70 71 0
-70 315 0
70 -315 -71 0
-71 72 0
-71 349 0
71 -349 -72 0
-72 316 0
-72 317 0
72 -317 -316 0
73 -74 0
73 -77 0
-73 77 74 0
-74 75 0
-74 327 0
74 -327 -75 0
-75 76 0
-75 349 0
75 -349 -76 0
-76 328 0
-76 329 0
76 -329 -328 0
-77 78 0
-77 342 0
77 -342 -78 0
-78 79 0
-78 343 0
78 -343 -79 0
-79 344 0
-79 345 0
79 -345 -344 0
80 -81 0
80 -89 0
-80 89 81 0
-81 82 0
-81 85 0
81 -85 -82 0
-82 83 0
-82 84 0
82 -84 -83 0
83 131 0
83 -326 0
-83 326 -131 0
84 132 0
84 -347 0
-84 347 -132 0
-85 86 0
-85 153 0
85 -153 -86 0
-86 87 0
-86 320 0
86 -320 -87 0
-87 88 0
-87 321 0
87 -321 -88 0
-88 322 0
-88 323 0
88 -323 -322 0
-89 90 0
-89 93 0
89 -93 -90 0
-90 91 0
-90 92 0
90 -92 -91 0
91 133 0
91 -326 0
-91 326 -133 0
92 134 0
92 -347 0
-92 347 -134 0
-93 94 0
-93 153 0
93 -153 -94 0
94 -95 0
94 -98 0
-94 98 95 0
-95 96 0
-95 298 0
95 -298 -96 0
-96 97 0
-96 304 0
96 -304 -97 0
-97 299 0
-97 300 0
97 -300 -299 0
-98 99 0
-98 332 0
98 -332 -99 0
-99 100 0
-99 349 0
99 -349 -100 0
-100 333 0
-100 334 0
100 -334 -333 0
101 148 0
101 -102 0
-101 102 -148 0
101 0
-102 -127 0
-102 -128 0
102 128 127 0
103 150 0
103 -104 0
-103 104 -150 0
103 0
-104 -127 0
-104 105 0
104 -105 127 0
-105 -128 0
-105 106 0
105 -106 128 0
-106 -129 0
-106 -130 0
106 130 129 0
107 -104 0
107 152 0
-107 -152 104 0
107 0
108 148 0
108 -109 0
-108 109 -148 0
108 0
-109 110 0
-109 113 0
109 -113 -110 0
110 -111 0
110 -112 0
-110 112 111 0
-111 -130 0
-111 129 0
111 -129 130 0
-112 -129 0
-112 130 0
112 -130 129 0
-113 114 0
-113 117 0
113 -117 -114 0
114 -115 0
114 -116 0
-114 116 115 0
-115 -132 0
-115 131 0
115 -131 132 0
-116 -131 0
-116 132 0
116 -132 131 0
117 -118 0
117 -119 0
-117 119 118 0
-118 -134 0
-118 133 0
118 -133 134 0
-119 -133 0
-119 134 0
119 -134 133 0
120 150 0
120 -113 0
-120 113 -150 0
120 0
121 152 0
121 -113 0
-121 113 -152 0
121 0
122 153 0
122 -123 0
-122 123 -153 0
122 0
-123 109 0
-123 124 0
123 -124 -109 0
124 -125 0
124 -126 0
-124 126 125 0
-125 -128 0
-125 127 0
125 -127 128 0
-126 -127 0
-126 128 0
126 -128 127 0
135 -136 0
135 -139 0
-135 139 136 0
135 0
-136 -150 0
-136 137 0
136 -137 150 0
-137 -152 0
-137 138 0
137 -138 152 0
-138 -153 0
-138 148 0
138 -148 153 0
139 -140 0
139 -143 0
-139 143 140 0
-140 -148 0
-140 141 0
140 -141 148 0
-141 -152 0
-141 142 0
141 -142 152 0
-142 -153 0
-142 150 0
142 -150 153 0
143 -144 0
143 -147 0
-143 147 144 0
-144 -148 0
-144 145 0
144 -145 148 0
-145 -150 0
-145 146 0
145 -146 150 0
-146 -153 0
-146 152 0
146 -152 153 0
-147 -148 0
-147 149 0
147 -149 148 0
-149 -150 0
-149 151 0
149 -151 150 0
-151 -152 0
-151 153 0
151 -153 152 0
154 347 0
154 326 0
-154 -326 -347 0
154 0
155 303 0
155 298 0
-155 -298 -303 0
155 0
156 309 0
156 -157 0
-156 157 -309 0
156 0
-157 -303 0
-157 -298 0
157 298 303 0
158 315 0
158 -159 0
-158 159 -315 0
158 0
-159 -298 0
-159 160 0
159 -160 298 0
-160 -303 0
-160 -309 0
160 309 303 0
161 320 0
161 -162 0
-161 162 -320 0
161 0
-162 -298 0
-162 163 0
162 -163 298 0
-163 -303 0
-163 164 0
163 -164 303 0
-164 -309 0
-164 -315 0
164 315 309 0
165 327 0
165 -166 0
-165 166 -327 0
165 0
-166 -298 0
-166 167 0
166 -167 298 0
-167 -303 0
-167 168 0
167 -168 303 0
-168 -309 0
-168 169 0
168 -169 309 0
-169 -315 0
-169 -320 0
169 320 315 0
170 332 0
170 -171 0
-170 171 -332 0
170 0
-171 -298 0
-171 172 0
171 -172 298 0
-172 -303 0
-172 173 0
172 -173 303 0
-173 -309 0
-173 174 0
173 -174 309 0
-174 -315 0
-174 175 0
174 -175 315 0
-175 -320 0
-175 -327 0
175 327 320 0
176 337 0
176 -177 0
-176 177 -337 0
176 0
-177 -298 0
-177 178 0
177 -178 298 0
-178 -303 0
-178 179 0
178 -179 303 0
-179 -309 0
-179 180 0
179 -180 309 0
-180 -315 0
-180 181 0
180 -181 315 0
-181 -320 0
-181 182 0
181 -182 320 0
-182 -327 0
-182 -332 0
182 332 327 0
183 342 0
183 -184 0
-183 184 -342 0
183 0
-184 -298 0
-184 185 0
184 -185 298 0
-185 -303 0
-185 186 0
185 -186 303 0
-186 -309 0
-186 187 0
186 -187 309 0
-187 -315 0
-187 188 0
187 -188 315 0
-188 -320 0
-188 189 0
188 -189 320 0
-189 -327 0
-189 190 0
189 -190 327 0
-190 -332 0
-190 -337 0
190 337 332 0
191 348 0
191 -192 0
-191 192 -348 0
191 0
-192 -298 0
-192 193 0
192 -193 298 0
-193 -303 0
-193 194 0
193 -194 303 0
-194 -309 0
-194 195 0
194 -195 309 0
-195 -315 0
-195 196 0
195 -196 315 0
-196 -320 0
-196 197 0
196 -197 320 0
-197 -327 0
-197 198 0
197 -198 327 0
-198 -332 0
-198 199 0
198 -199 332 0
-199 -337 0
-199 -342 0
199 342 337 0
200 310 0
200 304 0
-200 -304 -310 0
200 0
201 321 0
201 -202 0
-201 202 -321 0
201 0
-202 -310 0
-202 -304 0
202 304 310 0
203 338 0
203 -204 0
-203 204 -338 0
203 0
-204 -304 0
-204 205 0
204 -205 304 0
-205 -310 0
-205 -321 0
205 321 310 0
206 343 0
206 -207 0
-206 207 -343 0
206 0
-207 -304 0
-207 208 0
207 -208 304 0
-208 -310 0
-208 209 0
208 -209 310 0
-209 -321 0
-209 -338 0
209 338 321 0
210 349 0
210 -211 0
-210 211 -349 0
210 0
-211 -304 0
-211 212 0
211 -212 304 0
-212 -310 0
-212 213 0
212 -213 310 0
-213 -321 0
-213 214 0
213 -214 321 0
-214 -338 0
-214 -343 0
214 343 338 0
215 305 0
215 299 0
-215 -299 -305 0
215 0
216 311 0
216 -217 0
-216 217 -311 0
216 0
-217 -305 0
-217 -299 0
217 299 305 0
218 316 0
218 -219 0
-218 219 -316 0
218 0
-219 -299 0
-219 220 0
219 -220 299 0
-220 -305 0
-220 -311 0
220 311 305 0
221 322 0
221 -222 0
-221 222 -322 0
221 0
-222 -299 0
-222 223 0
222 -223 299 0
-223 -305 0
-223 224 0
223 -224 305 0
-224 -311 0
-224 -316 0
224 316 311 0
225 328 0
225 -226 0
-225 226 -328 0
225 0
-226 -299 0
-226 227 0
226 -227 299 0
-227 -305 0
-227 228 0
227 -228 305 0
-228 -311 0
-228 229 0
228 -229 311 0
-229 -316 0
-229 -322 0
229 322 316 0
230 333 0
230 -231 0
-230 231 -333 0
230 0
-231 -299 0
-231 232 0
231 -232 299 0
-232 -305 0
-232 233 0
232 -233 305 0
-233 -311 0
-233 234 0
233 -234 311 0
-234 -316 0
-234 235 0
234 -235 316 0
-235 -322 0
-235 -328 0
235 328 322 0
236 339 0
236 -237 0
-236 237 -339 0
236 0
-237 -299 0
-237 238 0
237 -238 299 0
-238 -305 0
-238 239 0
238 -239 305 0
-239 -311 0
-239 240 0
239 -240 311 0
-240 -316 0
-240 241 0
240 -241 316 0
-241 -322 0
-241 242 0
241 -242 322 0
-242 -328 0
-242 -333 0
242 333 328 0
243 344 0
243 -244 0
-243 244 -344 0
243 0
-244 -299 0
-244 245 0
244 -245 299 0
-245 -305 0
-245 246 0
245 -246 305 0
-246 -311 0
-246 247 0
246 -247 311 0
-247 -316 0
-247 248 0
247 -248 316 0
-248 -322 0
-248 249 0
248 -249 322 0
-249 -328 0
-249 250 0
249 -250 328 0
-250 -333 0
-250 -339 0
250 339 333 0
251 350 0
251 -252 0
-251 252 -350 0
251 0
-252 -299 0
-252 253 0
252 -253 299 0
-253 -305 0
-253 254 0
253 -254 305 0
-254 -311 0
-254 255 0
254 -255 311 0
-255 -316 0
-255 256 0
255 -256 316 0
-256 -322 0
-256 257 0
256 -257 322 0
-257 -328 0
-257 258 0
257 -258 328 0
-258 -333 0
-258 259 0
258 -259 333 0
-259 -339 0
-259 -344 0
259 344 339 0
260 306 0
260 300 0
-260 -300 -306 0
260 0
261 312 0
261 -262 0
-261 262 -312 0
261 0
-262 -306 0
-262 -300 0
262 300 306 0
263 317 0
263 -264 0
-263 264 -317 0
263 0
-264 -300 0
-264 265 0
264 -265 300 0
-265 -306 0
-265 -312 0
265 312 306 0
266 323 0
266 -267 0
-266 267 -323 0
266 0
-267 -300 0
-267 268 0
267 -268 300 0
-268 -306 0
-268 269 0
268 -269 306 0
-269 -312 0
-269 -317 0
269 317 312 0
270 329 0
270 -271 0
-270 271 -329 0
270 0
-271 -300 0
-271 272 0
271 -272 300 0
-272 -306 0
-272 273 0
272 -273 306 0
-273 -312 0
-273 274 0
273 -274 312 0
-274 -317 0
-274 -323 0
274 323 317 0
275 334 0
275 -276 0
-275 276 -334 0
275 0
-276 -300 0
-276 277 0
276 -277 300 0
-277 -306 0
-277 278 0
277 -278 306 0
-278 -312 0
-278 279 0
278 -279 312 0
-279 -317 0
-279 280 0
279 -280 317 0
-280 -323 0
-280 -329 0
280 329 323 0
281 345 0
281 -282 0
-281 282 -345 0
281 0
-282 -300 0
-282 283 0
282 -283 300 0
-283 -306 0
-283 284 0
283 -284 306 0
-284 -312 0
-284 285 0
284 -285 312 0
-285 -317 0
-285 286 0
285 -286 317 0
-286 -323 0
-286 287 0
286 -287 323 0
-287 -329 0
-287 -334 0
287 334 329 0
288 351 0
288 -289 0
-288 289 -351 0
288 0
-289 -300 0
-289 290 0
289 -290 300 0
-290 -306 0
-290 291 0
290 -291 306 0
-291 -312 0
-291 292 0
291 -292 312 0
-292 -317 0
-292 293 0
292 -293 317 0
-293 -323 0
-293 294 0
293 -294 323 0
-294 -329 0
-294 295 0
294 -295 329 0
-295 -334 0
-295 -345 0
295 345 334 0
296 -297 0
296 -301 0
-296 301 297 0
296 0
-297 95 0
-297 347 0
297 -347 -95 0
301 -302 0
301 -307 0
-301 307 302 0
-302 49 0
-302 326 0
302 -326 -49 0
307 -308 0
307 -313 0
-307 313 308 0
-308 66 0
-308 347 0
308 -347 -66 0
313 -314 0
313 -318 0
-313 318 314 0
-314 70 0
-314 326 0
314 -326 -70 0
318 -319 0
318 -324 0
-318 324 319 0
-319 86 0
-319 326 0
319 -326 -86 0
324 -325 0
324 -330 0
-324 330 325 0
-325 74 0
-325 326 0
325 -326 -74 0
330 -331 0
330 -335 0
-330 335 331 0
-331 98 0
-331 347 0
331 -347 -98 0
335 -336 0
335 -340 0
-335 340 336 0
-336 53 0
-336 347 0
336 -347 -53 0
340 -341 0
340 -346 0
-340 346 341 0
-341 77 0
-341 347 0
341 -347 -77 0
-346 56 0
-346 347 0
346 -347 -56 0
